--Link1--
%chk=IPR25.chk
%mem=4GB
%nproc=24
#B3LYP/6-31G* scrf=(solvent=water) SCF=tight Test Pop=MK iop(6/33=2) iop(6/42=6) opt

remark line goes here

-1  1
    C  133.6550000000        6.4400000000      -36.7280000000     
    C  132.2550000000        7.9060000000      -35.3340000000     
    N  133.0240000000        8.6030000000      -37.5930000000     
    C  133.6910000000        7.4260000000      -37.8070000000     
    C  132.3730000000        8.9690000000      -36.4430000000     
    C  132.9950000000        6.6380000000      -35.5670000000     
    N  131.5950000000        7.9900000000      -34.2380000000     
    C  128.6730000000        8.8870000000      -32.6200000000     
    C  134.3630000000        5.2290000000      -36.9990000000     
    C  129.1880000000        9.4970000000      -31.3260000000     
    N  130.7480000000        9.0990000000      -33.9320000000     
    N  134.9440000000        4.2560000000      -37.2370000000     
    C  129.4600000000        8.7430000000      -33.8140000000     
    O  134.3030000000        7.2070000000      -38.8550000000     
    O  131.9260000000       10.1090000000      -36.2860000000     
    O  128.4670000000       10.2480000000      -30.6310000000     
    C  133.0540000000        9.6020000000      -38.6900000000     
    O  130.3490000000        9.2060000000      -30.9550000000     
    C  132.9360000000        5.5780000000      -34.4650000000     
    C  127.3300000000        8.4330000000      -32.6340000000     
    O  132.8660000000        8.5540000000      -40.8580000000     
    C  128.8570000000        8.1580000000      -34.9520000000     
    C  132.1230000000        9.2030000000      -39.8490000000     
    C  126.7550000000        7.8580000000      -33.7790000000     
    C  127.5220000000        7.7210000000      -34.9440000000     
    H  132.7860000000       10.5980000000      -38.3310000000     
    H  134.0680000000        9.7460000000      -39.0700000000     
    H  131.9090000000        5.2400000000      -34.3180000000     
    H  133.5390000000        4.6980000000      -34.6850000000     
    H  133.2990000000        5.9860000000      -33.5210000000     
    H  126.7120000000        8.5280000000      -31.7530000000     
    H  132.4000000000        7.7750000000      -41.1220000000     
    H  129.4330000000        8.0380000000      -35.8580000000     
    H  131.3360000000        8.5320000000      -39.5010000000     
    H  131.6380000000       10.0800000000      -40.2790000000     
    H  125.7290000000        7.5230000000      -33.7620000000     
    H  127.0910000000        7.2790000000      -35.8300000000     
    H  131.1429000000       10.0229000000      -33.8296000000     


